<?xml version="1.0" encoding="UTF-8"?><osil xmlns="os.optimizationservices.org"   xmlns:xsi="http://www.w3.org/2001/XMLSchema-instance" xsi:schemaLocation="os.optimizationservices.org http://www.optimizationservices.org/schemas/2.0/OSiL.xsd" ><instanceHeader><name>q_20_4_75_5</name></instanceHeader><instanceData><variables numberOfVariables="20"><var name="x1" ub="1"/><var name="x2" ub="1"/><var name="x3" ub="1"/><var name="x4" ub="1"/><var name="x5" ub="1"/><var name="x6" ub="1"/><var name="x7" ub="1"/><var name="x8" ub="1"/><var name="x9" ub="1"/><var name="x10" ub="1"/><var name="x11" ub="1"/><var name="x12" ub="1"/><var name="x13" ub="1"/><var name="x14" ub="1"/><var name="x15" ub="1"/><var name="x16" ub="1"/><var name="x17" ub="1"/><var name="x18" ub="1"/><var name="x19" ub="1"/><var name="x20" ub="1"/></variables><objectives numberOfObjectives="1"><obj maxOrMin="min" name="defObj_x21" numberOfObjCoef="20"><coef idx="0">.6764</coef><coef idx="1">.9619</coef><coef idx="2">.1215</coef><coef idx="3">.6925</coef><coef idx="4">.3733</coef><coef idx="5">.3799</coef><coef idx="6">3.34e-2</coef><coef idx="7">.5111</coef><coef idx="8">.6279</coef><coef idx="9">.4825</coef><coef idx="10">.3167</coef><coef idx="11">.7111</coef><coef idx="12">-.7877</coef><coef idx="13">.965</coef><coef idx="14">-.7714</coef><coef idx="15">.1066</coef><coef idx="16">.6476</coef><coef idx="17">-.8322</coef><coef idx="18">-.8679</coef><coef idx="19">-.1452</coef></obj></objectives><constraints numberOfConstraints="4"><con name="e2" ub="50.841"/><con name="e3" ub="7.479"/><con name="e4" ub="86.921"/><con name="e5" ub="16.167"/></constraints><linearConstraintCoefficients numberOfValues="80"><start><el mult="5" incr="20">0</el></start><colIdx><el mult="20" incr="1">0</el><el mult="20" incr="1">0</el><el mult="20" incr="1">0</el><el mult="20" incr="1">0</el></colIdx><value><el>-.1609</el><el>.7309</el><el>.4977</el><el>.2829</el><el>-.6099</el><el>-.7996</el><el>.3218</el><el>-.6309</el><el>.5041</el><el>.7424</el><el>-.6027</el><el>.965</el><el>-.9937</el><el>.6049</el><el>-.9632</el><el>-.5825</el><el>.1448</el><el>-1.47e-2</el><el>-9.97e-2</el><el>.1135</el><el>.6779</el><el>-.3872</el><el>.2552</el><el>.8844</el><el>-.9211</el><el>8.37e-2</el><el>-.3835</el><el>-.9304</el><el>-.9384</el><el>.2625</el><el>.5946</el><el>.3923</el><el>.3641</el><el>.4553</el><el>-.1385</el><el>-.36</el><el>.9557</el><el>-.3659</el><el>.7798</el><el>-.6314</el><el>.6637</el><el>.3243</el><el>-.9179</el><el>-.2024</el><el>-.3614</el><el>.6923</el><el>-.6987</el><el>-.3324</el><el>.2958</el><el>.3663</el><el>-.6154</el><el>.6713</el><el>-.9334</el><el>-.8831</el><el>-.2644</el><el>-.2765</el><el>.3136</el><el>-.8821</el><el>-.6316</el><el>.6725</el><el>.536</el><el>.5357</el><el>.8335</el><el>-.4088</el><el>.1983</el><el>-.9789</el><el>-.8035</el><el>-.2847</el><el>.3765</el><el>-.4816</el><el>-2.2e-3</el><el>.8677</el><el>.9182</el><el>.5269</el><el>-.8899</el><el>.8132</el><el>.643</el><el>-4.93e-2</el><el>-.6313</el><el>.135</el></value></linearConstraintCoefficients><quadraticCoefficients  numberOfQuadraticTerms="550" ><qTerm  idx="-1"  idxOne="0"  idxTwo="0"  coef="-.2836"/><qTerm  idx="-1"  idxOne="0"  idxTwo="1"  coef="-.8083"/><qTerm  idx="-1"  idxOne="0"  idxTwo="2"  coef="-.767"/><qTerm  idx="-1"  idxOne="0"  idxTwo="3"  coef="-.7751"/><qTerm  idx="-1"  idxOne="0"  idxTwo="5"  coef=".6105"/><qTerm  idx="-1"  idxOne="0"  idxTwo="6"  coef="-.9271"/><qTerm  idx="-1"  idxOne="0"  idxTwo="7"  coef=".7631"/><qTerm  idx="-1"  idxOne="0"  idxTwo="8"  coef=".8594"/><qTerm  idx="-1"  idxOne="0"  idxTwo="9"  coef="-.8755"/><qTerm  idx="-1"  idxOne="0"  idxTwo="10"  coef=".8643"/><qTerm  idx="-1"  idxOne="0"  idxTwo="11"  coef="-.6373"/><qTerm  idx="-1"  idxOne="0"  idxTwo="12"  coef="-.3507"/><qTerm  idx="-1"  idxOne="0"  idxTwo="13"  coef=".3766"/><qTerm  idx="-1"  idxOne="0"  idxTwo="14"  coef="-.368"/><qTerm  idx="-1"  idxOne="0"  idxTwo="15"  coef="1.63e-2"/><qTerm  idx="-1"  idxOne="0"  idxTwo="17"  coef=".3319"/><qTerm  idx="-1"  idxOne="0"  idxTwo="19"  coef="7.64e-2"/><qTerm  idx="-1"  idxOne="1"  idxTwo="1"  coef=".3133"/><qTerm  idx="-1"  idxOne="1"  idxTwo="2"  coef=".9254"/><qTerm  idx="-1"  idxOne="1"  idxTwo="5"  coef=".5831"/><qTerm  idx="-1"  idxOne="1"  idxTwo="6"  coef=".6328"/><qTerm  idx="-1"  idxOne="1"  idxTwo="14"  coef=".4813"/><qTerm  idx="-1"  idxOne="1"  idxTwo="15"  coef=".8477"/><qTerm  idx="-1"  idxOne="1"  idxTwo="18"  coef=".1267"/><qTerm  idx="-1"  idxOne="2"  idxTwo="2"  coef="-5.78e-2"/><qTerm  idx="-1"  idxOne="2"  idxTwo="5"  coef="-.9871"/><qTerm  idx="-1"  idxOne="2"  idxTwo="6"  coef="-.9052"/><qTerm  idx="-1"  idxOne="2"  idxTwo="7"  coef="-.3575"/><qTerm  idx="-1"  idxOne="2"  idxTwo="8"  coef="-.7701"/><qTerm  idx="-1"  idxOne="2"  idxTwo="9"  coef="-.2787"/><qTerm  idx="-1"  idxOne="2"  idxTwo="11"  coef=".5171"/><qTerm  idx="-1"  idxOne="2"  idxTwo="13"  coef=".8146"/><qTerm  idx="-1"  idxOne="2"  idxTwo="16"  coef=".6966"/><qTerm  idx="-1"  idxOne="2"  idxTwo="18"  coef=".5929"/><qTerm  idx="-1"  idxOne="2"  idxTwo="19"  coef="-.8551"/><qTerm  idx="-1"  idxOne="3"  idxTwo="3"  coef=".6237"/><qTerm  idx="-1"  idxOne="3"  idxTwo="5"  coef="-.1681"/><qTerm  idx="-1"  idxOne="3"  idxTwo="6"  coef=".7504"/><qTerm  idx="-1"  idxOne="3"  idxTwo="8"  coef=".563"/><qTerm  idx="-1"  idxOne="3"  idxTwo="9"  coef=".2542"/><qTerm  idx="-1"  idxOne="3"  idxTwo="10"  coef=".7762"/><qTerm  idx="-1"  idxOne="3"  idxTwo="11"  coef=".1871"/><qTerm  idx="-1"  idxOne="3"  idxTwo="12"  coef=".9747"/><qTerm  idx="-1"  idxOne="3"  idxTwo="14"  coef=".3439"/><qTerm  idx="-1"  idxOne="3"  idxTwo="16"  coef="-.6369"/><qTerm  idx="-1"  idxOne="3"  idxTwo="18"  coef="-.8733"/><qTerm  idx="-1"  idxOne="3"  idxTwo="19"  coef=".3479"/><qTerm  idx="-1"  idxOne="4"  idxTwo="4"  coef=".1103"/><qTerm  idx="-1"  idxOne="4"  idxTwo="6"  coef="-.7751"/><qTerm  idx="-1"  idxOne="4"  idxTwo="11"  coef="-6.8e-3"/><qTerm  idx="-1"  idxOne="4"  idxTwo="14"  coef="-7.02e-2"/><qTerm  idx="-1"  idxOne="4"  idxTwo="15"  coef="4.77e-2"/><qTerm  idx="-1"  idxOne="4"  idxTwo="17"  coef=".3784"/><qTerm  idx="-1"  idxOne="4"  idxTwo="19"  coef=".8261"/><qTerm  idx="-1"  idxOne="5"  idxTwo="6"  coef="-8.63e-2"/><qTerm  idx="-1"  idxOne="5"  idxTwo="7"  coef=".409"/><qTerm  idx="-1"  idxOne="5"  idxTwo="14"  coef="-.8169"/><qTerm  idx="-1"  idxOne="5"  idxTwo="16"  coef="-.9935"/><qTerm  idx="-1"  idxOne="6"  idxTwo="7"  coef=".529"/><qTerm  idx="-1"  idxOne="6"  idxTwo="8"  coef=".5509"/><qTerm  idx="-1"  idxOne="6"  idxTwo="11"  coef=".5682"/><qTerm  idx="-1"  idxOne="6"  idxTwo="13"  coef=".7036"/><qTerm  idx="-1"  idxOne="6"  idxTwo="14"  coef="-3.5e-2"/><qTerm  idx="-1"  idxOne="6"  idxTwo="15"  coef="-.2856"/><qTerm  idx="-1"  idxOne="6"  idxTwo="17"  coef="-.9515"/><qTerm  idx="-1"  idxOne="6"  idxTwo="19"  coef=".3214"/><qTerm  idx="-1"  idxOne="7"  idxTwo="7"  coef="-.3409"/><qTerm  idx="-1"  idxOne="7"  idxTwo="8"  coef=".2111"/><qTerm  idx="-1"  idxOne="7"  idxTwo="9"  coef="-.2634"/><qTerm  idx="-1"  idxOne="7"  idxTwo="10"  coef="-.2968"/><qTerm  idx="-1"  idxOne="7"  idxTwo="11"  coef="-.5945"/><qTerm  idx="-1"  idxOne="7"  idxTwo="14"  coef="-.622"/><qTerm  idx="-1"  idxOne="7"  idxTwo="15"  coef=".455"/><qTerm  idx="-1"  idxOne="7"  idxTwo="16"  coef="-.2588"/><qTerm  idx="-1"  idxOne="7"  idxTwo="17"  coef="-.7214"/><qTerm  idx="-1"  idxOne="7"  idxTwo="19"  coef=".9409"/><qTerm  idx="-1"  idxOne="8"  idxTwo="9"  coef=".889"/><qTerm  idx="-1"  idxOne="8"  idxTwo="11"  coef="-.9144"/><qTerm  idx="-1"  idxOne="8"  idxTwo="12"  coef=".5282"/><qTerm  idx="-1"  idxOne="8"  idxTwo="15"  coef=".3283"/><qTerm  idx="-1"  idxOne="8"  idxTwo="16"  coef="-7.07e-2"/><qTerm  idx="-1"  idxOne="8"  idxTwo="17"  coef=".4222"/><qTerm  idx="-1"  idxOne="9"  idxTwo="9"  coef=".4827"/><qTerm  idx="-1"  idxOne="9"  idxTwo="10"  coef="-.2653"/><qTerm  idx="-1"  idxOne="9"  idxTwo="11"  coef=".2878"/><qTerm  idx="-1"  idxOne="9"  idxTwo="15"  coef="-9.86e-2"/><qTerm  idx="-1"  idxOne="9"  idxTwo="18"  coef=".2734"/><qTerm  idx="-1"  idxOne="10"  idxTwo="12"  coef="-.6828"/><qTerm  idx="-1"  idxOne="10"  idxTwo="13"  coef="-.2854"/><qTerm  idx="-1"  idxOne="10"  idxTwo="15"  coef="-.8903"/><qTerm  idx="-1"  idxOne="10"  idxTwo="17"  coef=".5504"/><qTerm  idx="-1"  idxOne="11"  idxTwo="11"  coef=".4851"/><qTerm  idx="-1"  idxOne="11"  idxTwo="13"  coef="4.25e-2"/><qTerm  idx="-1"  idxOne="11"  idxTwo="15"  coef=".2277"/><qTerm  idx="-1"  idxOne="11"  idxTwo="16"  coef=".1448"/><qTerm  idx="-1"  idxOne="11"  idxTwo="17"  coef=".7396"/><qTerm  idx="-1"  idxOne="11"  idxTwo="18"  coef="-.4417"/><qTerm  idx="-1"  idxOne="11"  idxTwo="19"  coef="-.2304"/><qTerm  idx="-1"  idxOne="12"  idxTwo="12"  coef=".9223"/><qTerm  idx="-1"  idxOne="12"  idxTwo="16"  coef="-.9064"/><qTerm  idx="-1"  idxOne="14"  idxTwo="14"  coef=".5744"/><qTerm  idx="-1"  idxOne="14"  idxTwo="16"  coef=".8767"/><qTerm  idx="-1"  idxOne="14"  idxTwo="19"  coef="-.5792"/><qTerm  idx="-1"  idxOne="15"  idxTwo="15"  coef="-.7828"/><qTerm  idx="-1"  idxOne="15"  idxTwo="17"  coef="-.5629"/><qTerm  idx="-1"  idxOne="15"  idxTwo="19"  coef=".7049"/><qTerm  idx="-1"  idxOne="16"  idxTwo="16"  coef=".9937"/><qTerm  idx="-1"  idxOne="16"  idxTwo="19"  coef=".9042"/><qTerm  idx="-1"  idxOne="17"  idxTwo="17"  coef="-.3082"/><qTerm  idx="-1"  idxOne="19"  idxTwo="19"  coef="-.7641"/><qTerm  idx="0"  idxOne="0"  idxTwo="0"  coef="-.2757"/><qTerm  idx="0"  idxOne="0"  idxTwo="1"  coef=".718"/><qTerm  idx="0"  idxOne="0"  idxTwo="3"  coef=".7158"/><qTerm  idx="0"  idxOne="0"  idxTwo="6"  coef="-.2389"/><qTerm  idx="0"  idxOne="0"  idxTwo="8"  coef=".2344"/><qTerm  idx="0"  idxOne="0"  idxTwo="10"  coef="-.7464"/><qTerm  idx="0"  idxOne="0"  idxTwo="11"  coef=".2897"/><qTerm  idx="0"  idxOne="0"  idxTwo="14"  coef=".4408"/><qTerm  idx="0"  idxOne="0"  idxTwo="16"  coef=".3929"/><qTerm  idx="0"  idxOne="0"  idxTwo="18"  coef=".8672"/><qTerm  idx="0"  idxOne="0"  idxTwo="19"  coef="-.372"/><qTerm  idx="0"  idxOne="1"  idxTwo="1"  coef=".5234"/><qTerm  idx="0"  idxOne="1"  idxTwo="4"  coef="-1.6e-2"/><qTerm  idx="0"  idxOne="1"  idxTwo="8"  coef=".8508"/><qTerm  idx="0"  idxOne="1"  idxTwo="9"  coef=".7222"/><qTerm  idx="0"  idxOne="1"  idxTwo="10"  coef=".2099"/><qTerm  idx="0"  idxOne="1"  idxTwo="12"  coef=".2753"/><qTerm  idx="0"  idxOne="1"  idxTwo="16"  coef="-3.76e-2"/><qTerm  idx="0"  idxOne="1"  idxTwo="19"  coef="-.2478"/><qTerm  idx="0"  idxOne="2"  idxTwo="3"  coef=".3003"/><qTerm  idx="0"  idxOne="2"  idxTwo="4"  coef=".8704"/><qTerm  idx="0"  idxOne="2"  idxTwo="9"  coef=".5421"/><qTerm  idx="0"  idxOne="2"  idxTwo="10"  coef="-.7168"/><qTerm  idx="0"  idxOne="2"  idxTwo="11"  coef="-.5864"/><qTerm  idx="0"  idxOne="2"  idxTwo="16"  coef="-.872"/><qTerm  idx="0"  idxOne="2"  idxTwo="18"  coef="-.6573"/><qTerm  idx="0"  idxOne="2"  idxTwo="19"  coef=".7287"/><qTerm  idx="0"  idxOne="3"  idxTwo="3"  coef=".6232"/><qTerm  idx="0"  idxOne="3"  idxTwo="6"  coef=".3768"/><qTerm  idx="0"  idxOne="3"  idxTwo="7"  coef="-.3045"/><qTerm  idx="0"  idxOne="3"  idxTwo="8"  coef="-.8243"/><qTerm  idx="0"  idxOne="3"  idxTwo="10"  coef="-.9695"/><qTerm  idx="0"  idxOne="3"  idxTwo="13"  coef="2.45e-2"/><qTerm  idx="0"  idxOne="3"  idxTwo="15"  coef=".7578"/><qTerm  idx="0"  idxOne="3"  idxTwo="17"  coef=".136"/><qTerm  idx="0"  idxOne="3"  idxTwo="19"  coef="-.9606"/><qTerm  idx="0"  idxOne="4"  idxTwo="4"  coef="-.8254"/><qTerm  idx="0"  idxOne="4"  idxTwo="5"  coef="-.8313"/><qTerm  idx="0"  idxOne="4"  idxTwo="8"  coef=".5186"/><qTerm  idx="0"  idxOne="4"  idxTwo="10"  coef=".9094"/><qTerm  idx="0"  idxOne="4"  idxTwo="11"  coef="-.4794"/><qTerm  idx="0"  idxOne="4"  idxTwo="13"  coef=".1516"/><qTerm  idx="0"  idxOne="4"  idxTwo="17"  coef=".7775"/><qTerm  idx="0"  idxOne="4"  idxTwo="18"  coef=".136"/><qTerm  idx="0"  idxOne="5"  idxTwo="9"  coef="3.67e-2"/><qTerm  idx="0"  idxOne="5"  idxTwo="13"  coef="-.6688"/><qTerm  idx="0"  idxOne="5"  idxTwo="15"  coef="-.3935"/><qTerm  idx="0"  idxOne="5"  idxTwo="16"  coef=".4194"/><qTerm  idx="0"  idxOne="5"  idxTwo="18"  coef="-.4538"/><qTerm  idx="0"  idxOne="5"  idxTwo="19"  coef="7.5e-2"/><qTerm  idx="0"  idxOne="6"  idxTwo="7"  coef="-.3988"/><qTerm  idx="0"  idxOne="6"  idxTwo="12"  coef="-.3406"/><qTerm  idx="0"  idxOne="6"  idxTwo="13"  coef="-.5948"/><qTerm  idx="0"  idxOne="6"  idxTwo="18"  coef="-.3929"/><qTerm  idx="0"  idxOne="7"  idxTwo="7"  coef=".6553"/><qTerm  idx="0"  idxOne="7"  idxTwo="8"  coef="-.8243"/><qTerm  idx="0"  idxOne="7"  idxTwo="9"  coef=".8822"/><qTerm  idx="0"  idxOne="7"  idxTwo="10"  coef=".1895"/><qTerm  idx="0"  idxOne="7"  idxTwo="12"  coef="-.6292"/><qTerm  idx="0"  idxOne="7"  idxTwo="13"  coef="-.3081"/><qTerm  idx="0"  idxOne="7"  idxTwo="14"  coef=".9673"/><qTerm  idx="0"  idxOne="7"  idxTwo="16"  coef="-.9131"/><qTerm  idx="0"  idxOne="7"  idxTwo="18"  coef="-9.57e-2"/><qTerm  idx="0"  idxOne="7"  idxTwo="19"  coef=".4056"/><qTerm  idx="0"  idxOne="8"  idxTwo="8"  coef="8.77e-2"/><qTerm  idx="0"  idxOne="8"  idxTwo="10"  coef="-.6554"/><qTerm  idx="0"  idxOne="8"  idxTwo="11"  coef=".938"/><qTerm  idx="0"  idxOne="8"  idxTwo="12"  coef="-.3022"/><qTerm  idx="0"  idxOne="8"  idxTwo="15"  coef="-4.18e-2"/><qTerm  idx="0"  idxOne="8"  idxTwo="16"  coef=".1593"/><qTerm  idx="0"  idxOne="9"  idxTwo="9"  coef=".7385"/><qTerm  idx="0"  idxOne="9"  idxTwo="10"  coef=".5924"/><qTerm  idx="0"  idxOne="9"  idxTwo="11"  coef="-.9821"/><qTerm  idx="0"  idxOne="9"  idxTwo="12"  coef=".9176"/><qTerm  idx="0"  idxOne="9"  idxTwo="16"  coef=".5029"/><qTerm  idx="0"  idxOne="9"  idxTwo="18"  coef="-.7755"/><qTerm  idx="0"  idxOne="9"  idxTwo="19"  coef="-6.84e-2"/><qTerm  idx="0"  idxOne="10"  idxTwo="10"  coef=".8024"/><qTerm  idx="0"  idxOne="10"  idxTwo="13"  coef=".2599"/><qTerm  idx="0"  idxOne="10"  idxTwo="18"  coef=".4099"/><qTerm  idx="0"  idxOne="11"  idxTwo="11"  coef=".8164"/><qTerm  idx="0"  idxOne="11"  idxTwo="12"  coef="2.84e-2"/><qTerm  idx="0"  idxOne="11"  idxTwo="14"  coef="-6.58e-2"/><qTerm  idx="0"  idxOne="11"  idxTwo="15"  coef=".1025"/><qTerm  idx="0"  idxOne="11"  idxTwo="16"  coef=".3001"/><qTerm  idx="0"  idxOne="11"  idxTwo="17"  coef="-.3635"/><qTerm  idx="0"  idxOne="11"  idxTwo="18"  coef=".2956"/><qTerm  idx="0"  idxOne="12"  idxTwo="13"  coef="-.7667"/><qTerm  idx="0"  idxOne="12"  idxTwo="18"  coef=".7247"/><qTerm  idx="0"  idxOne="12"  idxTwo="19"  coef="-.3435"/><qTerm  idx="0"  idxOne="13"  idxTwo="15"  coef=".6767"/><qTerm  idx="0"  idxOne="13"  idxTwo="18"  coef=".4849"/><qTerm  idx="0"  idxOne="13"  idxTwo="19"  coef="-.3591"/><qTerm  idx="0"  idxOne="14"  idxTwo="14"  coef=".3664"/><qTerm  idx="0"  idxOne="14"  idxTwo="15"  coef=".9158"/><qTerm  idx="0"  idxOne="14"  idxTwo="17"  coef=".2723"/><qTerm  idx="0"  idxOne="14"  idxTwo="18"  coef="-.8383"/><qTerm  idx="0"  idxOne="14"  idxTwo="19"  coef="-.3088"/><qTerm  idx="0"  idxOne="15"  idxTwo="15"  coef="-.3323"/><qTerm  idx="0"  idxOne="15"  idxTwo="16"  coef=".9299"/><qTerm  idx="0"  idxOne="15"  idxTwo="19"  coef=".4586"/><qTerm  idx="0"  idxOne="16"  idxTwo="16"  coef="-.2235"/><qTerm  idx="0"  idxOne="16"  idxTwo="17"  coef="-.4283"/><qTerm  idx="0"  idxOne="16"  idxTwo="18"  coef=".9633"/><qTerm  idx="0"  idxOne="16"  idxTwo="19"  coef=".2777"/><qTerm  idx="0"  idxOne="17"  idxTwo="17"  coef="-.8423"/><qTerm  idx="0"  idxOne="17"  idxTwo="19"  coef="-.7306"/><qTerm  idx="0"  idxOne="18"  idxTwo="18"  coef="-.7641"/><qTerm  idx="0"  idxOne="18"  idxTwo="19"  coef=".6016"/><qTerm  idx="0"  idxOne="19"  idxTwo="19"  coef="-.3196"/><qTerm  idx="1"  idxOne="0"  idxTwo="0"  coef=".2858"/><qTerm  idx="1"  idxOne="0"  idxTwo="4"  coef="-.5175"/><qTerm  idx="1"  idxOne="0"  idxTwo="5"  coef=".3596"/><qTerm  idx="1"  idxOne="0"  idxTwo="8"  coef="3.4e-3"/><qTerm  idx="1"  idxOne="0"  idxTwo="9"  coef=".5146"/><qTerm  idx="1"  idxOne="0"  idxTwo="10"  coef=".3201"/><qTerm  idx="1"  idxOne="0"  idxTwo="12"  coef=".5943"/><qTerm  idx="1"  idxOne="0"  idxTwo="14"  coef=".1961"/><qTerm  idx="1"  idxOne="0"  idxTwo="15"  coef=".7462"/><qTerm  idx="1"  idxOne="0"  idxTwo="16"  coef=".4328"/><qTerm  idx="1"  idxOne="0"  idxTwo="18"  coef=".3605"/><qTerm  idx="1"  idxOne="0"  idxTwo="19"  coef="-.9385"/><qTerm  idx="1"  idxOne="1"  idxTwo="1"  coef=".8248"/><qTerm  idx="1"  idxOne="1"  idxTwo="2"  coef=".4994"/><qTerm  idx="1"  idxOne="1"  idxTwo="4"  coef=".7224"/><qTerm  idx="1"  idxOne="1"  idxTwo="5"  coef="-.9325"/><qTerm  idx="1"  idxOne="1"  idxTwo="9"  coef="-.617"/><qTerm  idx="1"  idxOne="1"  idxTwo="12"  coef="-.5378"/><qTerm  idx="1"  idxOne="1"  idxTwo="14"  coef=".3801"/><qTerm  idx="1"  idxOne="1"  idxTwo="15"  coef=".9379"/><qTerm  idx="1"  idxOne="1"  idxTwo="17"  coef="-.3135"/><qTerm  idx="1"  idxOne="1"  idxTwo="19"  coef=".6152"/><qTerm  idx="1"  idxOne="2"  idxTwo="3"  coef=".5898"/><qTerm  idx="1"  idxOne="2"  idxTwo="8"  coef=".9177"/><qTerm  idx="1"  idxOne="2"  idxTwo="9"  coef="-.4846"/><qTerm  idx="1"  idxOne="2"  idxTwo="10"  coef="7.28e-2"/><qTerm  idx="1"  idxOne="2"  idxTwo="11"  coef=".1326"/><qTerm  idx="1"  idxOne="2"  idxTwo="13"  coef="3.03e-2"/><qTerm  idx="1"  idxOne="2"  idxTwo="19"  coef=".5825"/><qTerm  idx="1"  idxOne="3"  idxTwo="3"  coef=".8522"/><qTerm  idx="1"  idxOne="3"  idxTwo="7"  coef=".7479"/><qTerm  idx="1"  idxOne="3"  idxTwo="10"  coef="-.9419"/><qTerm  idx="1"  idxOne="3"  idxTwo="11"  coef=".9986"/><qTerm  idx="1"  idxOne="3"  idxTwo="15"  coef=".3461"/><qTerm  idx="1"  idxOne="3"  idxTwo="16"  coef=".3855"/><qTerm  idx="1"  idxOne="3"  idxTwo="17"  coef="-.6577"/><qTerm  idx="1"  idxOne="4"  idxTwo="4"  coef=".4746"/><qTerm  idx="1"  idxOne="4"  idxTwo="6"  coef="-.8737"/><qTerm  idx="1"  idxOne="4"  idxTwo="9"  coef="-6.93e-2"/><qTerm  idx="1"  idxOne="4"  idxTwo="12"  coef="-.531"/><qTerm  idx="1"  idxOne="4"  idxTwo="17"  coef=".2619"/><qTerm  idx="1"  idxOne="5"  idxTwo="5"  coef=".7759"/><qTerm  idx="1"  idxOne="5"  idxTwo="6"  coef="-.8152"/><qTerm  idx="1"  idxOne="5"  idxTwo="7"  coef="-.7558"/><qTerm  idx="1"  idxOne="5"  idxTwo="9"  coef="-.7223"/><qTerm  idx="1"  idxOne="5"  idxTwo="11"  coef=".4888"/><qTerm  idx="1"  idxOne="5"  idxTwo="13"  coef=".7821"/><qTerm  idx="1"  idxOne="5"  idxTwo="14"  coef="-.9252"/><qTerm  idx="1"  idxOne="5"  idxTwo="16"  coef=".7971"/><qTerm  idx="1"  idxOne="5"  idxTwo="17"  coef="-.5829"/><qTerm  idx="1"  idxOne="5"  idxTwo="18"  coef="-3.4e-2"/><qTerm  idx="1"  idxOne="5"  idxTwo="19"  coef=".4056"/><qTerm  idx="1"  idxOne="6"  idxTwo="6"  coef="-.88"/><qTerm  idx="1"  idxOne="6"  idxTwo="7"  coef=".4228"/><qTerm  idx="1"  idxOne="6"  idxTwo="13"  coef="-.9389"/><qTerm  idx="1"  idxOne="6"  idxTwo="15"  coef=".8658"/><qTerm  idx="1"  idxOne="6"  idxTwo="16"  coef=".7211"/><qTerm  idx="1"  idxOne="6"  idxTwo="18"  coef="-.4657"/><qTerm  idx="1"  idxOne="6"  idxTwo="19"  coef="-.7535"/><qTerm  idx="1"  idxOne="7"  idxTwo="7"  coef="-7.35e-2"/><qTerm  idx="1"  idxOne="7"  idxTwo="8"  coef="-.1349"/><qTerm  idx="1"  idxOne="7"  idxTwo="13"  coef="-.5373"/><qTerm  idx="1"  idxOne="7"  idxTwo="15"  coef=".2019"/><qTerm  idx="1"  idxOne="7"  idxTwo="18"  coef="-.8292"/><qTerm  idx="1"  idxOne="7"  idxTwo="19"  coef="-.2807"/><qTerm  idx="1"  idxOne="8"  idxTwo="8"  coef=".6909"/><qTerm  idx="1"  idxOne="8"  idxTwo="9"  coef="-.3411"/><qTerm  idx="1"  idxOne="8"  idxTwo="11"  coef="-.4094"/><qTerm  idx="1"  idxOne="8"  idxTwo="14"  coef="-.2912"/><qTerm  idx="1"  idxOne="8"  idxTwo="16"  coef=".8844"/><qTerm  idx="1"  idxOne="8"  idxTwo="17"  coef="-.8173"/><qTerm  idx="1"  idxOne="8"  idxTwo="18"  coef="-.5673"/><qTerm  idx="1"  idxOne="9"  idxTwo="9"  coef=".1886"/><qTerm  idx="1"  idxOne="9"  idxTwo="11"  coef=".5261"/><qTerm  idx="1"  idxOne="9"  idxTwo="12"  coef="-.4091"/><qTerm  idx="1"  idxOne="9"  idxTwo="14"  coef="-.8374"/><qTerm  idx="1"  idxOne="9"  idxTwo="15"  coef=".7834"/><qTerm  idx="1"  idxOne="9"  idxTwo="16"  coef="-.3163"/><qTerm  idx="1"  idxOne="9"  idxTwo="17"  coef="-.8926"/><qTerm  idx="1"  idxOne="9"  idxTwo="18"  coef="-.9043"/><qTerm  idx="1"  idxOne="9"  idxTwo="19"  coef="-.706"/><qTerm  idx="1"  idxOne="10"  idxTwo="10"  coef=".7451"/><qTerm  idx="1"  idxOne="10"  idxTwo="12"  coef="-.664"/><qTerm  idx="1"  idxOne="10"  idxTwo="13"  coef=".9466"/><qTerm  idx="1"  idxOne="10"  idxTwo="14"  coef="-.1186"/><qTerm  idx="1"  idxOne="10"  idxTwo="17"  coef="-.4192"/><qTerm  idx="1"  idxOne="10"  idxTwo="19"  coef=".6151"/><qTerm  idx="1"  idxOne="11"  idxTwo="11"  coef="-5.04e-2"/><qTerm  idx="1"  idxOne="11"  idxTwo="15"  coef=".9574"/><qTerm  idx="1"  idxOne="11"  idxTwo="16"  coef="-.9114"/><qTerm  idx="1"  idxOne="11"  idxTwo="18"  coef=".2263"/><qTerm  idx="1"  idxOne="11"  idxTwo="19"  coef=".6297"/><qTerm  idx="1"  idxOne="12"  idxTwo="13"  coef=".1457"/><qTerm  idx="1"  idxOne="12"  idxTwo="14"  coef="4.4e-3"/><qTerm  idx="1"  idxOne="12"  idxTwo="16"  coef="-5.35e-2"/><qTerm  idx="1"  idxOne="12"  idxTwo="17"  coef=".6572"/><qTerm  idx="1"  idxOne="13"  idxTwo="13"  coef=".405"/><qTerm  idx="1"  idxOne="13"  idxTwo="14"  coef="-.7969"/><qTerm  idx="1"  idxOne="13"  idxTwo="18"  coef=".9239"/><qTerm  idx="1"  idxOne="14"  idxTwo="14"  coef="-.682"/><qTerm  idx="1"  idxOne="14"  idxTwo="17"  coef="-.5902"/><qTerm  idx="1"  idxOne="14"  idxTwo="18"  coef="-.8263"/><qTerm  idx="1"  idxOne="15"  idxTwo="15"  coef="1.9e-2"/><qTerm  idx="1"  idxOne="15"  idxTwo="17"  coef="-.5654"/><qTerm  idx="1"  idxOne="15"  idxTwo="19"  coef="-.4068"/><qTerm  idx="1"  idxOne="16"  idxTwo="17"  coef="-.4188"/><qTerm  idx="1"  idxOne="16"  idxTwo="19"  coef="-.3325"/><qTerm  idx="1"  idxOne="17"  idxTwo="19"  coef="-8.05e-2"/><qTerm  idx="1"  idxOne="18"  idxTwo="18"  coef="-.8854"/><qTerm  idx="1"  idxOne="18"  idxTwo="19"  coef=".5526"/><qTerm  idx="2"  idxOne="0"  idxTwo="0"  coef="2.51e-2"/><qTerm  idx="2"  idxOne="0"  idxTwo="1"  coef=".1727"/><qTerm  idx="2"  idxOne="0"  idxTwo="2"  coef="-.1656"/><qTerm  idx="2"  idxOne="0"  idxTwo="3"  coef="-.7663"/><qTerm  idx="2"  idxOne="0"  idxTwo="5"  coef="-.9996"/><qTerm  idx="2"  idxOne="0"  idxTwo="6"  coef="-.4905"/><qTerm  idx="2"  idxOne="0"  idxTwo="7"  coef="-.6694"/><qTerm  idx="2"  idxOne="0"  idxTwo="8"  coef="-.4286"/><qTerm  idx="2"  idxOne="0"  idxTwo="9"  coef=".2862"/><qTerm  idx="2"  idxOne="0"  idxTwo="10"  coef="2.47e-2"/><qTerm  idx="2"  idxOne="0"  idxTwo="11"  coef="-.9652"/><qTerm  idx="2"  idxOne="0"  idxTwo="12"  coef="-.8352"/><qTerm  idx="2"  idxOne="0"  idxTwo="13"  coef="-.5099"/><qTerm  idx="2"  idxOne="0"  idxTwo="15"  coef="-.6331"/><qTerm  idx="2"  idxOne="0"  idxTwo="17"  coef=".8321"/><qTerm  idx="2"  idxOne="0"  idxTwo="19"  coef="9.51e-2"/><qTerm  idx="2"  idxOne="1"  idxTwo="2"  coef=".7352"/><qTerm  idx="2"  idxOne="1"  idxTwo="6"  coef="-.6864"/><qTerm  idx="2"  idxOne="1"  idxTwo="12"  coef="-3.86e-2"/><qTerm  idx="2"  idxOne="1"  idxTwo="13"  coef="-.99"/><qTerm  idx="2"  idxOne="1"  idxTwo="14"  coef="-.2603"/><qTerm  idx="2"  idxOne="1"  idxTwo="15"  coef="-.8459"/><qTerm  idx="2"  idxOne="1"  idxTwo="16"  coef="-.118"/><qTerm  idx="2"  idxOne="2"  idxTwo="2"  coef=".7679"/><qTerm  idx="2"  idxOne="2"  idxTwo="4"  coef=".2016"/><qTerm  idx="2"  idxOne="2"  idxTwo="6"  coef=".8604"/><qTerm  idx="2"  idxOne="2"  idxTwo="8"  coef=".9474"/><qTerm  idx="2"  idxOne="2"  idxTwo="9"  coef="-.6858"/><qTerm  idx="2"  idxOne="2"  idxTwo="10"  coef=".4481"/><qTerm  idx="2"  idxOne="2"  idxTwo="11"  coef=".7099"/><qTerm  idx="2"  idxOne="2"  idxTwo="12"  coef=".798"/><qTerm  idx="2"  idxOne="2"  idxTwo="13"  coef="-.3159"/><qTerm  idx="2"  idxOne="2"  idxTwo="14"  coef=".5596"/><qTerm  idx="2"  idxOne="2"  idxTwo="15"  coef=".2071"/><qTerm  idx="2"  idxOne="2"  idxTwo="19"  coef="-.2917"/><qTerm  idx="2"  idxOne="3"  idxTwo="3"  coef=".948"/><qTerm  idx="2"  idxOne="3"  idxTwo="12"  coef=".868"/><qTerm  idx="2"  idxOne="3"  idxTwo="13"  coef="-.3007"/><qTerm  idx="2"  idxOne="3"  idxTwo="16"  coef=".4229"/><qTerm  idx="2"  idxOne="3"  idxTwo="18"  coef="-.3115"/><qTerm  idx="2"  idxOne="3"  idxTwo="19"  coef=".4712"/><qTerm  idx="2"  idxOne="4"  idxTwo="4"  coef="3.06e-2"/><qTerm  idx="2"  idxOne="4"  idxTwo="9"  coef="-.1532"/><qTerm  idx="2"  idxOne="4"  idxTwo="10"  coef=".5391"/><qTerm  idx="2"  idxOne="4"  idxTwo="11"  coef=".8638"/><qTerm  idx="2"  idxOne="4"  idxTwo="12"  coef="-.4371"/><qTerm  idx="2"  idxOne="4"  idxTwo="13"  coef="-.3952"/><qTerm  idx="2"  idxOne="4"  idxTwo="18"  coef="-.3578"/><qTerm  idx="2"  idxOne="5"  idxTwo="7"  coef=".2803"/><qTerm  idx="2"  idxOne="5"  idxTwo="9"  coef="-.5994"/><qTerm  idx="2"  idxOne="5"  idxTwo="10"  coef=".1987"/><qTerm  idx="2"  idxOne="5"  idxTwo="12"  coef="-.5984"/><qTerm  idx="2"  idxOne="5"  idxTwo="13"  coef="-.6414"/><qTerm  idx="2"  idxOne="5"  idxTwo="14"  coef=".1849"/><qTerm  idx="2"  idxOne="5"  idxTwo="17"  coef=".4192"/><qTerm  idx="2"  idxOne="5"  idxTwo="18"  coef=".3054"/><qTerm  idx="2"  idxOne="5"  idxTwo="19"  coef="-.3732"/><qTerm  idx="2"  idxOne="6"  idxTwo="6"  coef="-.876"/><qTerm  idx="2"  idxOne="6"  idxTwo="11"  coef="-.8766"/><qTerm  idx="2"  idxOne="6"  idxTwo="15"  coef="-.9306"/><qTerm  idx="2"  idxOne="6"  idxTwo="16"  coef="9.94e-2"/><qTerm  idx="2"  idxOne="6"  idxTwo="17"  coef=".9439"/><qTerm  idx="2"  idxOne="7"  idxTwo="7"  coef=".1365"/><qTerm  idx="2"  idxOne="7"  idxTwo="14"  coef="-.7992"/><qTerm  idx="2"  idxOne="7"  idxTwo="15"  coef="-.694"/><qTerm  idx="2"  idxOne="7"  idxTwo="17"  coef=".9646"/><qTerm  idx="2"  idxOne="7"  idxTwo="18"  coef=".7605"/><qTerm  idx="2"  idxOne="7"  idxTwo="19"  coef="-.4248"/><qTerm  idx="2"  idxOne="8"  idxTwo="8"  coef=".9537"/><qTerm  idx="2"  idxOne="8"  idxTwo="9"  coef=".2575"/><qTerm  idx="2"  idxOne="8"  idxTwo="14"  coef="-2.51e-2"/><qTerm  idx="2"  idxOne="8"  idxTwo="16"  coef="-.2024"/><qTerm  idx="2"  idxOne="8"  idxTwo="18"  coef="-.7663"/><qTerm  idx="2"  idxOne="8"  idxTwo="19"  coef="-.925"/><qTerm  idx="2"  idxOne="9"  idxTwo="9"  coef="-.6804"/><qTerm  idx="2"  idxOne="9"  idxTwo="10"  coef=".1988"/><qTerm  idx="2"  idxOne="9"  idxTwo="11"  coef="-.9651"/><qTerm  idx="2"  idxOne="9"  idxTwo="12"  coef="-.7238"/><qTerm  idx="2"  idxOne="9"  idxTwo="13"  coef="-.7036"/><qTerm  idx="2"  idxOne="9"  idxTwo="15"  coef="-.4961"/><qTerm  idx="2"  idxOne="9"  idxTwo="16"  coef="-.7315"/><qTerm  idx="2"  idxOne="9"  idxTwo="19"  coef="-.5924"/><qTerm  idx="2"  idxOne="10"  idxTwo="12"  coef="-.5411"/><qTerm  idx="2"  idxOne="10"  idxTwo="19"  coef=".9245"/><qTerm  idx="2"  idxOne="11"  idxTwo="11"  coef=".7388"/><qTerm  idx="2"  idxOne="11"  idxTwo="13"  coef="-.1304"/><qTerm  idx="2"  idxOne="11"  idxTwo="14"  coef=".151"/><qTerm  idx="2"  idxOne="11"  idxTwo="15"  coef="-5.06e-2"/><qTerm  idx="2"  idxOne="11"  idxTwo="17"  coef=".9126"/><qTerm  idx="2"  idxOne="11"  idxTwo="19"  coef="-8.6e-3"/><qTerm  idx="2"  idxOne="12"  idxTwo="12"  coef=".9128"/><qTerm  idx="2"  idxOne="12"  idxTwo="13"  coef="-.4122"/><qTerm  idx="2"  idxOne="12"  idxTwo="16"  coef="-.646"/><qTerm  idx="2"  idxOne="12"  idxTwo="18"  coef=".2933"/><qTerm  idx="2"  idxOne="13"  idxTwo="13"  coef="-.2271"/><qTerm  idx="2"  idxOne="13"  idxTwo="14"  coef="-.5639"/><qTerm  idx="2"  idxOne="13"  idxTwo="17"  coef=".5472"/><qTerm  idx="2"  idxOne="13"  idxTwo="19"  coef=".4298"/><qTerm  idx="2"  idxOne="14"  idxTwo="14"  coef="-.7718"/><qTerm  idx="2"  idxOne="14"  idxTwo="17"  coef="-.4099"/><qTerm  idx="2"  idxOne="14"  idxTwo="19"  coef=".3039"/><qTerm  idx="2"  idxOne="15"  idxTwo="15"  coef=".973"/><qTerm  idx="2"  idxOne="15"  idxTwo="18"  coef="-.4335"/><qTerm  idx="2"  idxOne="15"  idxTwo="19"  coef="-.7831"/><qTerm  idx="2"  idxOne="16"  idxTwo="16"  coef="-.8783"/><qTerm  idx="2"  idxOne="16"  idxTwo="18"  coef="9.31e-2"/><qTerm  idx="2"  idxOne="16"  idxTwo="19"  coef="-.1678"/><qTerm  idx="2"  idxOne="17"  idxTwo="17"  coef=".2904"/><qTerm  idx="2"  idxOne="18"  idxTwo="19"  coef="-.6145"/><qTerm  idx="2"  idxOne="19"  idxTwo="19"  coef="-.7762"/><qTerm  idx="3"  idxOne="0"  idxTwo="0"  coef=".3759"/><qTerm  idx="3"  idxOne="0"  idxTwo="2"  coef="-.3773"/><qTerm  idx="3"  idxOne="0"  idxTwo="3"  coef="-.3505"/><qTerm  idx="3"  idxOne="0"  idxTwo="5"  coef="-.1923"/><qTerm  idx="3"  idxOne="0"  idxTwo="6"  coef=".3752"/><qTerm  idx="3"  idxOne="0"  idxTwo="7"  coef="-9.67e-2"/><qTerm  idx="3"  idxOne="0"  idxTwo="8"  coef=".8282"/><qTerm  idx="3"  idxOne="0"  idxTwo="9"  coef="-.4846"/><qTerm  idx="3"  idxOne="0"  idxTwo="12"  coef="1.8e-3"/><qTerm  idx="3"  idxOne="0"  idxTwo="14"  coef="-.6977"/><qTerm  idx="3"  idxOne="0"  idxTwo="15"  coef=".2478"/><qTerm  idx="3"  idxOne="0"  idxTwo="16"  coef="-.1357"/><qTerm  idx="3"  idxOne="0"  idxTwo="17"  coef=".4816"/><qTerm  idx="3"  idxOne="0"  idxTwo="19"  coef=".8381"/><qTerm  idx="3"  idxOne="1"  idxTwo="6"  coef="-.6253"/><qTerm  idx="3"  idxOne="1"  idxTwo="8"  coef=".5723"/><qTerm  idx="3"  idxOne="1"  idxTwo="12"  coef="-.1555"/><qTerm  idx="3"  idxOne="1"  idxTwo="13"  coef=".3243"/><qTerm  idx="3"  idxOne="1"  idxTwo="17"  coef="6.14e-2"/><qTerm  idx="3"  idxOne="1"  idxTwo="19"  coef=".6028"/><qTerm  idx="3"  idxOne="2"  idxTwo="2"  coef=".44"/><qTerm  idx="3"  idxOne="2"  idxTwo="5"  coef="-.6618"/><qTerm  idx="3"  idxOne="2"  idxTwo="6"  coef=".4818"/><qTerm  idx="3"  idxOne="2"  idxTwo="8"  coef=".8458"/><qTerm  idx="3"  idxOne="2"  idxTwo="9"  coef=".9232"/><qTerm  idx="3"  idxOne="2"  idxTwo="16"  coef="4.37e-2"/><qTerm  idx="3"  idxOne="2"  idxTwo="18"  coef=".2984"/><qTerm  idx="3"  idxOne="3"  idxTwo="3"  coef="-.613"/><qTerm  idx="3"  idxOne="3"  idxTwo="4"  coef=".3039"/><qTerm  idx="3"  idxOne="3"  idxTwo="7"  coef=".1466"/><qTerm  idx="3"  idxOne="3"  idxTwo="10"  coef="-.6311"/><qTerm  idx="3"  idxOne="3"  idxTwo="12"  coef="-.909"/><qTerm  idx="3"  idxOne="3"  idxTwo="14"  coef=".4336"/><qTerm  idx="3"  idxOne="3"  idxTwo="17"  coef="-.3321"/><qTerm  idx="3"  idxOne="3"  idxTwo="18"  coef=".9798"/><qTerm  idx="3"  idxOne="3"  idxTwo="19"  coef="-6.29e-2"/><qTerm  idx="3"  idxOne="4"  idxTwo="4"  coef=".3694"/><qTerm  idx="3"  idxOne="4"  idxTwo="10"  coef="-.4493"/><qTerm  idx="3"  idxOne="4"  idxTwo="11"  coef=".923"/><qTerm  idx="3"  idxOne="4"  idxTwo="15"  coef="-7.33e-2"/><qTerm  idx="3"  idxOne="4"  idxTwo="17"  coef="-.1531"/><qTerm  idx="3"  idxOne="4"  idxTwo="19"  coef=".1802"/><qTerm  idx="3"  idxOne="5"  idxTwo="5"  coef=".1944"/><qTerm  idx="3"  idxOne="5"  idxTwo="6"  coef=".894"/><qTerm  idx="3"  idxOne="5"  idxTwo="9"  coef="-.8613"/><qTerm  idx="3"  idxOne="5"  idxTwo="11"  coef="-.4835"/><qTerm  idx="3"  idxOne="5"  idxTwo="13"  coef=".7671"/><qTerm  idx="3"  idxOne="5"  idxTwo="16"  coef="5.83e-2"/><qTerm  idx="3"  idxOne="5"  idxTwo="18"  coef=".8813"/><qTerm  idx="3"  idxOne="5"  idxTwo="19"  coef="-1.46e-2"/><qTerm  idx="3"  idxOne="6"  idxTwo="7"  coef=".1434"/><qTerm  idx="3"  idxOne="6"  idxTwo="11"  coef="-.1487"/><qTerm  idx="3"  idxOne="6"  idxTwo="12"  coef=".9763"/><qTerm  idx="3"  idxOne="6"  idxTwo="16"  coef="-.5704"/><qTerm  idx="3"  idxOne="6"  idxTwo="18"  coef=".7438"/><qTerm  idx="3"  idxOne="6"  idxTwo="19"  coef=".4536"/><qTerm  idx="3"  idxOne="7"  idxTwo="7"  coef="-.5108"/><qTerm  idx="3"  idxOne="7"  idxTwo="8"  coef=".9601"/><qTerm  idx="3"  idxOne="7"  idxTwo="11"  coef=".5533"/><qTerm  idx="3"  idxOne="7"  idxTwo="15"  coef=".7182"/><qTerm  idx="3"  idxOne="8"  idxTwo="8"  coef=".235"/><qTerm  idx="3"  idxOne="8"  idxTwo="9"  coef="-.9393"/><qTerm  idx="3"  idxOne="8"  idxTwo="10"  coef="-.3468"/><qTerm  idx="3"  idxOne="8"  idxTwo="12"  coef="9.37e-2"/><qTerm  idx="3"  idxOne="8"  idxTwo="14"  coef="-.6601"/><qTerm  idx="3"  idxOne="8"  idxTwo="16"  coef=".1715"/><qTerm  idx="3"  idxOne="8"  idxTwo="18"  coef=".3667"/><qTerm  idx="3"  idxOne="9"  idxTwo="12"  coef=".6411"/><qTerm  idx="3"  idxOne="9"  idxTwo="15"  coef=".3253"/><qTerm  idx="3"  idxOne="9"  idxTwo="18"  coef=".5387"/><qTerm  idx="3"  idxOne="9"  idxTwo="19"  coef="-.9094"/><qTerm  idx="3"  idxOne="10"  idxTwo="12"  coef="-.1406"/><qTerm  idx="3"  idxOne="10"  idxTwo="13"  coef="-.8511"/><qTerm  idx="3"  idxOne="10"  idxTwo="15"  coef="1.85e-2"/><qTerm  idx="3"  idxOne="10"  idxTwo="18"  coef=".8827"/><qTerm  idx="3"  idxOne="10"  idxTwo="19"  coef="-.2548"/><qTerm  idx="3"  idxOne="11"  idxTwo="11"  coef=".4361"/><qTerm  idx="3"  idxOne="11"  idxTwo="12"  coef=".9304"/><qTerm  idx="3"  idxOne="11"  idxTwo="14"  coef=".8033"/><qTerm  idx="3"  idxOne="11"  idxTwo="15"  coef=".2807"/><qTerm  idx="3"  idxOne="11"  idxTwo="16"  coef=".7634"/><qTerm  idx="3"  idxOne="11"  idxTwo="18"  coef="-.9826"/><qTerm  idx="3"  idxOne="12"  idxTwo="12"  coef="-.3666"/><qTerm  idx="3"  idxOne="12"  idxTwo="14"  coef=".4857"/><qTerm  idx="3"  idxOne="12"  idxTwo="15"  coef="-.4248"/><qTerm  idx="3"  idxOne="12"  idxTwo="16"  coef="-.6236"/><qTerm  idx="3"  idxOne="12"  idxTwo="17"  coef=".5256"/><qTerm  idx="3"  idxOne="12"  idxTwo="18"  coef="-.9891"/><qTerm  idx="3"  idxOne="12"  idxTwo="19"  coef="-.5941"/><qTerm  idx="3"  idxOne="13"  idxTwo="13"  coef=".2342"/><qTerm  idx="3"  idxOne="13"  idxTwo="15"  coef="-.8701"/><qTerm  idx="3"  idxOne="13"  idxTwo="16"  coef="-.5265"/><qTerm  idx="3"  idxOne="13"  idxTwo="17"  coef=".3819"/><qTerm  idx="3"  idxOne="14"  idxTwo="14"  coef="-.6136"/><qTerm  idx="3"  idxOne="14"  idxTwo="16"  coef=".3384"/><qTerm  idx="3"  idxOne="14"  idxTwo="17"  coef="4.68e-2"/><qTerm  idx="3"  idxOne="14"  idxTwo="18"  coef="-.6842"/><qTerm  idx="3"  idxOne="14"  idxTwo="19"  coef="-.5436"/><qTerm  idx="3"  idxOne="15"  idxTwo="15"  coef=".1188"/><qTerm  idx="3"  idxOne="15"  idxTwo="17"  coef="-.9886"/><qTerm  idx="3"  idxOne="15"  idxTwo="18"  coef="-.9313"/><qTerm  idx="3"  idxOne="16"  idxTwo="16"  coef=".1185"/><qTerm  idx="3"  idxOne="16"  idxTwo="17"  coef=".6724"/><qTerm  idx="3"  idxOne="16"  idxTwo="18"  coef="-3.56e-2"/><qTerm  idx="3"  idxOne="16"  idxTwo="19"  coef="-.1857"/><qTerm  idx="3"  idxOne="17"  idxTwo="17"  coef=".2757"/><qTerm  idx="3"  idxOne="17"  idxTwo="19"  coef="-.8058"/><qTerm  idx="3"  idxOne="18"  idxTwo="18"  coef=".4015"/><qTerm  idx="3"  idxOne="18"  idxTwo="19"  coef=".5596"/><qTerm  idx="3"  idxOne="19"  idxTwo="19"  coef="-1.06e-2"/></quadraticCoefficients></instanceData></osil>
